TERM = { '.', 'in_1', 'local_0', 'local_1', 'in_6', 'in_2', 'in_4', 'in_3', 's(0)', 'in_5', 'in_0'};
null = '.';
s = 11;
n = 12;
ndeps = 3;
max_registers_sz = 4;
NR = 1;
registers = [|'local_1', 'in_6'|];
dependencies = [|'i32.store_0', 'i32.load_1', |'i32.load_1', 'i32.store8_5', |'i32.store8_5', 'i32.store16_9'|];
GET_ENUM = { GET1, GET2, GET3, GET4, GET5};
SET_ENUM = { SET1, SET2, SET3, SET4, SET5};
TEE_ENUM = { TEE1, TEE2, TEE3, TEE4, TEE5};
N = 5;
OP = { 'i32.store_0', 'i32.load_1', 'i32.store8_5', 'i32.store16_9', 'local.get_0' };
in_ops = [2, 1, 2, 2, 0 ];
out_ops = [0, 1, 0, 0, 1 ];
in1 = ['in_0', 'in_2', 's(0)', 'local_0', '.' ];
in2 = ['in_1', '.', 'in_3', 'in_5', '.' ];
in3 = ['.', '.', '.', '.', '.' ];
out1 = ['.', 's(0)', '.', '.', 'local_0' ];
out2 = ['.', '.', '.', '.', '.' ];
out3 = ['.', '.', '.', '.', '.' ];
comm = [false, false, false, false, false ];
gas = [1, 1, 1, 1, 1 ];
sz = [1, 1, 1, 1, 1 ];
stor = [true, false, true, true, false ];
lb = [ 1, 1, 1, 1, 1 ];
ub = [ 11, 11, 11, 11, 11 ];
startstack = [ 'in_0', 'in_1', 'in_2', 'in_3', 'in_4', 'in_5', 'in_6', null, null, null, null, null ];
endstack = [ 'in_6', null, null, null, null, null, null, null, null, null, null, null ];
